Traveling Salesman Problem/TSP_generados/Aleatorio1620390898_7.tsp
NAME: Aleatorio1620390898_7.tsp
COMMENT: Randomly generated scenario
TYPE: TSP
DIMENSION: 7
EDGE_WEIGHT_TYPE: ATT
NODE_COORD_SECTION
1 1.33 18.41
2 42.16 48.31
3 33.68 44.89
4 38.24 30.6
5 8.31 34.86
6 21.73 40.73
7 42.93 43.47
