Traveling Salesman Problem/TSP_generados/Aleatorio1620390898_7.opt.tour
NAME: Aleatorio1620390898_7.opt.tour
COMMENT: Optimal solution for Aleatorio1620390898_7 (111.78395718608148)
TYPE: TOUR
DIMENSION: 7
TOUR_SECTION
1 4 7 2 3 6 5
-1
EOF
